c FILE /home/rafael/Documents/HappySet/MIHS/inputs/happygen/output/graph_scale_free_k20_p0.2_v100_20241127_083925.txt
c SOURCE This is a scale-free graph formed for the happy graph colouring problem.
c DESCRIPTION It was generated using the problem generator of Rhyd Lewis
c
c GRAPH STATS
c Seed                             = -962101069
c Number of Nodes                  = 100
c Number of colours k              = 20
c Number of pre-assignments        = 20
c Number of links per new node     = 5
c Density                          = 0.0979798
c 
c The degrees of nodes 1 to 100, respectively, are as follows 
c [38, 33, 32, 29, 28, 26, 24, 23, 22, 21, 19, 17, 17, 17, 15, 15, 13, 13, 13, 12, 12, 12, 12, 11, 11, 11, 
c  11, 11, 11, 11, 10, 9, 9, 9, 8, 8, 8, 8, 8, 8, 8, 7, 7, 7, 7, 7, 7, 7, 7, 7, 7, 
c  6, 6, 6, 6, 6, 6, 6, 6, 6, 6, 6, 6, 6, 6, 6, 6, 6, 6, 6, 6, 6, 6, 5, 5, 5, 
c  5, 5, 5, 5, 5, 5, 5, 5, 5, 5, 5, 5, 5, 5, 5, 5, 5, 5, 5, 5, 5, 5, 5, 5] 
c  
p edge 100 485 20
e 1 2
e 1 3
e 1 4
e 1 5
e 1 6
e 1 7
e 1 8
e 1 10
e 1 11
e 1 12
e 1 14
e 1 18
e 1 19
e 1 20
e 1 22
e 1 25
e 1 26
e 1 27
e 1 33
e 1 34
e 1 41
e 1 42
e 1 46
e 1 49
e 1 50
e 1 52
e 1 55
e 1 60
e 1 62
e 1 64
e 1 67
e 1 71
e 1 72
e 1 79
e 1 85
e 1 94
e 1 95
e 1 98
e 2 3
e 2 4
e 2 5
e 2 6
e 2 7
e 2 8
e 2 11
e 2 12
e 2 14
e 2 16
e 2 17
e 2 20
e 2 21
e 2 22
e 2 23
e 2 26
e 2 28
e 2 30
e 2 32
e 2 35
e 2 36
e 2 39
e 2 42
e 2 43
e 2 59
e 2 65
e 2 67
e 2 68
e 2 72
e 2 73
e 2 74
e 2 91
e 3 6
e 3 8
e 3 9
e 3 10
e 3 11
e 3 12
e 3 15
e 3 21
e 3 23
e 3 24
e 3 28
e 3 33
e 3 35
e 3 36
e 3 37
e 3 38
e 3 43
e 3 46
e 3 47
e 3 56
e 3 58
e 3 73
e 3 75
e 3 76
e 3 78
e 3 84
e 3 88
e 3 97
e 3 98
e 3 99
e 4 5
e 4 6
e 4 7
e 4 8
e 4 11
e 4 13
e 4 14
e 4 15
e 4 20
e 4 21
e 4 24
e 4 43
e 4 46
e 4 49
e 4 51
e 4 52
e 4 53
e 4 55
e 4 57
e 4 60
e 4 62
e 4 67
e 4 79
e 4 85
e 4 87
e 4 88
e 4 100
e 5 6
e 5 10
e 5 11
e 5 12
e 5 13
e 5 15
e 5 17
e 5 18
e 5 20
e 5 30
e 5 31
e 5 32
e 5 37
e 5 39
e 5 41
e 5 42
e 5 48
e 5 49
e 5 52
e 5 53
e 5 58
e 5 65
e 5 70
e 5 73
e 5 81
e 6 10
e 6 12
e 6 18
e 6 19
e 6 20
e 6 24
e 6 26
e 6 33
e 6 35
e 6 36
e 6 44
e 6 45
e 6 50
e 6 53
e 6 56
e 6 66
e 6 74
e 6 80
e 6 82
e 6 84
e 6 94
e 7 10
e 7 11
e 7 12
e 7 13
e 7 15
e 7 17
e 7 18
e 7 19
e 7 24
e 7 27
e 7 29
e 7 40
e 7 45
e 7 49
e 7 51
e 7 54
e 7 62
e 7 70
e 7 81
e 7 90
e 7 92
e 8 9
e 8 10
e 8 16
e 8 17
e 8 21
e 8 24
e 8 25
e 8 30
e 8 32
e 8 38
e 8 51
e 8 52
e 8 58
e 8 64
e 8 74
e 8 83
e 8 84
e 8 86
e 8 97
e 9 12
e 9 16
e 9 18
e 9 21
e 9 22
e 9 33
e 9 34
e 9 37
e 9 41
e 9 43
e 9 48
e 9 54
e 9 69
e 9 71
e 9 75
e 9 77
e 9 79
e 9 80
e 9 86
e 9 93
e 10 14
e 10 17
e 10 27
e 10 28
e 10 29
e 10 35
e 10 38
e 10 45
e 10 47
e 10 58
e 10 61
e 10 82
e 10 88
e 10 93
e 10 99
e 11 12
e 11 13
e 11 20
e 11 23
e 11 25
e 11 29
e 11 38
e 11 40
e 11 53
e 11 60
e 11 64
e 11 75
e 11 76
e 12 13
e 12 14
e 12 16
e 12 19
e 12 21
e 12 27
e 12 57
e 12 60
e 12 90
e 13 22
e 13 26
e 13 28
e 13 46
e 13 55
e 13 56
e 13 61
e 13 65
e 13 72
e 13 75
e 13 77
e 13 89
e 14 25
e 14 35
e 14 39
e 14 56
e 14 61
e 14 62
e 14 68
e 14 69
e 14 75
e 14 84
e 14 96
e 14 99
e 15 20
e 15 28
e 15 29
e 15 44
e 15 64
e 15 65
e 15 68
e 15 74
e 15 76
e 15 88
e 15 96
e 16 20
e 16 23
e 16 27
e 16 41
e 16 42
e 16 52
e 16 54
e 16 68
e 16 78
e 16 92
e 16 98
e 17 22
e 17 31
e 17 37
e 17 40
e 17 60
e 17 71
e 17 72
e 17 91
e 18 20
e 18 31
e 18 40
e 18 64
e 18 66
e 18 70
e 18 86
e 18 88
e 19 21
e 19 30
e 19 32
e 19 39
e 19 45
e 19 56
e 19 69
e 19 83
e 19 95
e 20 37
e 20 48
e 20 97
e 21 36
e 21 54
e 21 57
e 21 80
e 21 85
e 22 26
e 22 34
e 22 42
e 22 45
e 22 50
e 22 63
e 22 74
e 23 36
e 23 62
e 23 63
e 23 70
e 23 76
e 23 90
e 23 93
e 23 98
e 24 25
e 24 31
e 24 32
e 24 38
e 24 61
e 24 81
e 25 30
e 25 33
e 25 49
e 25 73
e 25 89
e 25 100
e 26 31
e 26 36
e 26 44
e 26 76
e 26 90
e 26 99
e 27 40
e 27 58
e 27 69
e 27 81
e 27 89
e 27 92
e 28 29
e 28 44
e 28 59
e 28 71
e 28 78
e 28 94
e 29 53
e 29 59
e 29 63
e 29 71
e 29 95
e 29 100
e 30 39
e 30 51
e 30 55
e 30 57
e 30 79
e 30 93
e 31 41
e 31 46
e 31 50
e 31 93
e 31 94
e 32 44
e 32 47
e 32 66
e 32 100
e 33 61
e 33 69
e 33 70
e 33 78
e 34 46
e 34 47
e 34 54
e 34 57
e 34 67
e 34 95
e 35 43
e 35 55
e 35 82
e 36 89
e 36 92
e 37 47
e 37 59
e 37 87
e 38 63
e 38 66
e 38 78
e 39 50
e 39 54
e 39 59
e 40 63
e 40 72
e 40 87
e 41 48
e 41 77
e 41 86
e 42 94
e 42 96
e 43 80
e 43 91
e 44 82
e 44 99
e 45 87
e 45 91
e 46 48
e 47 77
e 47 85
e 48 83
e 48 91
e 49 68
e 49 85
e 50 80
e 50 96
e 51 52
e 51 82
e 51 83
e 53 67
e 55 97
e 56 66
e 57 98
e 58 83
e 59 89
e 60 65
e 61 77
e 62 84
e 63 79
e 64 73
e 65 81
e 66 90
e 67 86
e 68 87
e 69 92
e 70 97
e 71 95
e 72 100
e 73 96
n 2 14
n 19 17
n 29 12
n 37 7
n 41 9
n 44 10
n 46 5
n 52 8
n 54 2
n 55 18
n 58 3
n 70 19
n 75 4
n 78 6
n 79 16
n 80 13
n 88 15
n 90 1
n 93 20
n 94 11
